10
0 1 7 2 8 2 6 9 8 2 
3 0 1 8 7 9 4 6 9 6 
4 2 0 1 2 7 4 5 8 2 
5 8 5 0 1 3 9 7 9 5 
3 9 6 3 0 1 7 5 8 9 
4 2 9 7 9 0 1 8 3 2 
9 7 9 7 8 2 0 1 8 2 
7 6 4 5 7 9 4 0 1 8 
7 6 8 9 5 5 6 5 0 1 
1 3 6 3 2 8 6 4 2 0 
